

































































































103 47 114 59 80 21 25 
63 79 83 87 8 28 13 
64 32 112 35 6 39 18 
10 48 55 102 105 78 5 20 
44 15 4 0 1 34 22 
66 27 71 75 104 99 24 
42 77 107 89 100 31 7 
38 86 3 67 57 97 53 
9 109 54 14 19 74 41 
11 108 29 40 84 69 94 
106 43 92 98 85 23 72 37 
81 70 49 16 88 45 36 
46 58 62 17 76 56 73 
93 61 52 101 30 2 111 
12 33 91 96 68 82 113 
51 90 95 60 26 50 110 
65 
